
Log started (V22.2.0.0) Tue Jun  9 08:33:15 2026

New value for time limit in seconds: 120
New value for default parallel thread count: 4
New value for mixed integer optimality gap tolerance: 0.001
New value for level of mixed integer node display: 2

Problem 'results/InstanceB12_bigm_finsteps123.lp' read.
Read time = 0.00 sec. (0.22 ticks)
Version identifier: 22.2.0.0 | 2026-05-04 | 5dff98e58
CPXPARAM_Threads                                 4
CPXPARAM_TimeLimit                               120
CPXPARAM_MIP_Tolerances_MIPGap                   0.001
Tried aggregator 2 times.
MIP Presolve eliminated 19 rows and 19 columns.
MIP Presolve modified 20379 coefficients.
Aggregator did 227 substitutions.
Reduced MIP has 2190 rows, 1234 columns, and 6320 nonzeros.
Reduced MIP has 1007 binaries, 0 generals, 0 SOSs, and 0 indicators.
Presolve time = 0.01 sec. (9.84 ticks)
Found incumbent of value 42.000000 after 0.01 sec. (14.19 ticks)
Probing time = 0.00 sec. (3.17 ticks)
Tried aggregator 1 time.
Detecting symmetries...
MIP Presolve modified 11 coefficients.
Reduced MIP has 2190 rows, 1234 columns, and 6320 nonzeros.
Reduced MIP has 1007 binaries, 0 generals, 0 SOSs, and 0 indicators.
Presolve time = 0.00 sec. (3.52 ticks)
Probing time = 0.00 sec. (3.10 ticks)
Clique table members: 681.
MIP emphasis: balance optimality and feasibility.
MIP search method: dynamic search.
Parallel mode: deterministic, using up to 4 threads.
Root relaxation solution time = 0.00 sec. (21.65 ticks)

        Nodes                                         Cuts/
   Node  Left     Objective  IInf  Best Integer    Best Bound    ItCnt     Gap

*     0+    0                           42.0000        5.0000            88.10%
*     0+    0                           39.0000        5.0000            87.18%
      0     0        5.0000     4       39.0000        5.0000      687   87.18%
*     0+    0                            6.0000        5.0000            16.67%
      0     0        cutoff              6.0000                    687    0.00%
Elapsed time = 0.03 sec. (52.95 ticks, tree = 0.01 MB, solutions = 3)

Root node processing (before b&c):
  Real time             =    0.03 sec. (53.05 ticks)
Parallel b&c, 4 threads:
  Real time             =    0.00 sec. (0.00 ticks)
  Sync time (average)   =    0.00 sec.
  Wait time (average)   =    0.00 sec.
                          ------------
Total (root+branch&cut) =    0.03 sec. (53.05 ticks)

Solution pool: 3 solutions saved.

MIP - Integer optimal solution:  Objective =  6.0000000000e+00
Solution time =    0.03 sec.  Iterations = 687  Nodes = 0
Deterministic time = 53.05 ticks  (1796.49 ticks/sec)


Incumbent solution written to file 'results/InstanceB12_bigm_finsteps123.sol'.
